&CONTROL
 calculation='scf'
 dipfield=.false.
 disk_io='low'
 dt=20.0
 etot_conv_thr=0.0001
 forc_conv_thr=0.001
 input_xml_schema_file='Ag.xml'
 iprint=100000
 max_seconds=10000000
 outdir='./out'
 prefix='Ag'
 pseudo_dir='../pseudo'
 restart_mode='from_scratch'
 title='TDDFPT-EELS Example Ag (US PP)'
 tprnfor=.false.
 tstress=.false.
 verbosity='low'
 wf_collect=.true.
/
&SYSTEM
 degauss=0.02
 ecutrho=160.0
 ecutwfc=20.0
 force_symmorphic=.false.
  ibrav = 0
 input_dft='PBE'
 lspinorb=.false.
 nat=1
 no_t_rev=.false.
 noinv=.false.
 noncolin=.false.
 nosym=.false.
 nosym_evc=.false.
 nspin=1
 ntyp=1
 occupations='smearing'
 smearing='mv'
 starting_magnetization(1)=0.0
 tot_charge=0.0
 use_all_frac=.false.
/
&ELECTRONS
 conv_thr=1e-12
 diago_cg_maxiter=20
 diago_full_acc=.false.
 diago_thr_init=0.0
 diagonalization='davidson'
 electron_maxstep=100
 mixing_beta=0.7
 mixing_mode='plain'
 mixing_ndim=8
 tbeta_smoothing=.false.
 tq_smoothing=.false.
 tqr=.false.
/
&IONS
 ion_dynamics='none'
 refold_pos=.false.
 remove_rigid_rot=.false.
/
&CELL
 cell_dynamics='none'
 cell_factor=0.0
 press=0.0
 press_conv_thr=0.5
 wmass=98315.8497992
/
ATOMIC_SPECIES
 Ag 107.8682 Ag.pbe-dn-rrkjus_psl.0.1.UPF
ATOMIC_POSITIONS bohr
Ag     0.00000000    0.00000000    0.00000000
K_POINTS automatic
 4 4 4 1 1 1
CELL_PARAMETERS bohr
 -3.85850000   0.00000000   3.85850000 
  0.00000000   3.85850000   3.85850000 
 -3.85850000   3.85850000   0.00000000 